c FILE: i160-313

c SOURCE: From steinlib

c DESCRIPTION: Steinlib instance with 160 nodes and 812 edges.

p edge 160 812
e 1 14
e 1 30
e 1 38
e 1 41
e 1 51
e 1 57
e 1 65
e 1 97
e 1 107
e 1 122
e 1 131
e 1 137
e 1 148
e 1 153
e 2 14
e 2 22
e 2 58
e 2 66
e 2 82
e 2 90
e 2 136
e 2 155
e 3 6
e 3 24
e 3 36
e 3 39
e 3 55
e 3 65
e 3 76
e 3 89
e 3 111
e 3 113
e 3 121
e 4 8
e 4 19
e 4 22
e 4 52
e 4 63
e 4 85
e 4 108
e 4 109
e 4 121
e 4 151
e 4 158
e 4 159
e 5 8
e 5 15
e 5 18
e 5 19
e 5 52
e 5 63
e 5 72
e 5 91
e 5 114
e 5 140
e 5 142
e 6 15
e 6 19
e 6 22
e 6 27
e 6 29
e 6 31
e 6 32
e 6 38
e 6 82
e 6 89
e 6 114
e 6 140
e 7 26
e 7 37
e 7 39
e 7 45
e 7 51
e 7 98
e 7 100
e 7 124
e 7 155
e 8 68
e 8 103
e 8 122
e 8 138
e 8 146
e 8 148
e 8 156
e 8 158
e 9 32
e 9 94
e 9 112
e 9 134
e 9 137
e 9 139
e 9 141
e 9 142
e 10 37
e 10 39
e 10 58
e 10 105
e 10 128
e 10 134
e 11 17
e 11 18
e 11 21
e 11 32
e 11 37
e 11 39
e 11 50
e 11 51
e 11 83
e 11 105
e 11 114
e 11 117
e 11 119
e 11 124
e 11 133
e 12 36
e 12 46
e 12 53
e 12 54
e 12 109
e 12 120
e 12 136
e 13 35
e 13 36
e 13 41
e 13 43
e 13 92
e 13 96
e 13 118
e 13 120
e 13 139
e 13 143
e 13 159
e 14 30
e 14 37
e 14 40
e 14 42
e 14 56
e 14 64
e 14 107
e 14 126
e 14 127
e 14 136
e 14 154
e 15 24
e 15 38
e 15 49
e 15 83
e 15 127
e 15 132
e 15 136
e 15 152
e 16 60
e 16 71
e 16 89
e 16 103
e 16 105
e 16 115
e 16 118
e 16 131
e 16 133
e 16 151
e 16 152
e 17 18
e 17 22
e 17 25
e 17 35
e 17 76
e 17 101
e 17 108
e 17 142
e 18 23
e 18 43
e 18 50
e 18 71
e 18 88
e 18 96
e 18 115
e 19 39
e 19 48
e 19 123
e 19 124
e 19 153
e 20 44
e 20 45
e 20 50
e 20 65
e 20 66
e 20 70
e 20 104
e 20 127
e 21 31
e 21 56
e 21 85
e 21 86
e 21 99
e 21 105
e 21 128
e 21 133
e 21 134
e 21 135
e 21 136
e 22 27
e 22 50
e 22 88
e 22 93
e 22 98
e 22 102
e 22 154
e 22 160
e 23 24
e 23 36
e 23 59
e 23 94
e 23 151
e 23 152
e 23 153
e 23 160
e 24 25
e 24 44
e 24 60
e 24 69
e 24 86
e 24 96
e 24 121
e 24 130
e 24 131
e 24 137
e 24 143
e 24 149
e 25 61
e 25 76
e 25 91
e 25 101
e 25 132
e 25 136
e 25 139
e 25 159
e 26 31
e 26 36
e 26 92
e 26 108
e 26 111
e 26 123
e 26 143
e 26 153
e 26 159
e 27 42
e 27 48
e 27 54
e 27 79
e 27 90
e 28 30
e 28 34
e 28 42
e 28 73
e 28 88
e 28 90
e 28 118
e 28 125
e 28 127
e 28 130
e 28 154
e 29 31
e 29 67
e 29 87
e 29 108
e 29 137
e 30 40
e 30 49
e 30 56
e 30 62
e 30 82
e 30 96
e 30 105
e 30 146
e 30 158
e 31 57
e 31 60
e 31 68
e 31 80
e 31 84
e 31 114
e 31 122
e 31 136
e 31 139
e 31 159
e 32 42
e 32 52
e 32 67
e 32 77
e 32 104
e 32 106
e 32 114
e 32 136
e 32 147
e 32 154
e 33 40
e 33 41
e 33 51
e 33 65
e 33 69
e 33 78
e 33 98
e 33 127
e 33 129
e 34 37
e 34 89
e 34 95
e 34 98
e 34 101
e 34 136
e 34 137
e 35 41
e 35 50
e 35 69
e 35 114
e 35 116
e 35 120
e 35 123
e 35 135
e 35 150
e 35 154
e 36 37
e 36 38
e 36 39
e 36 52
e 36 66
e 36 80
e 36 107
e 36 118
e 36 122
e 36 126
e 36 132
e 36 145
e 36 149
e 37 45
e 37 52
e 37 61
e 37 95
e 37 146
e 37 156
e 38 45
e 38 73
e 38 80
e 38 85
e 38 92
e 38 99
e 38 104
e 38 105
e 38 121
e 38 133
e 38 137
e 38 140
e 39 77
e 39 102
e 39 127
e 39 149
e 40 82
e 40 97
e 40 100
e 40 106
e 40 119
e 40 143
e 40 151
e 41 57
e 41 59
e 41 87
e 41 96
e 41 115
e 41 137
e 42 46
e 42 61
e 42 70
e 42 108
e 42 134
e 42 142
e 43 88
e 43 90
e 43 118
e 43 141
e 44 73
e 44 96
e 44 104
e 44 107
e 44 131
e 44 142
e 44 159
e 45 56
e 45 66
e 45 99
e 45 109
e 45 125
e 45 139
e 45 140
e 46 76
e 46 84
e 46 97
e 46 109
e 46 114
e 46 115
e 46 137
e 46 144
e 46 152
e 46 156
e 47 55
e 47 77
e 47 111
e 47 123
e 47 134
e 47 137
e 48 60
e 48 70
e 48 73
e 48 89
e 48 94
e 48 155
e 49 71
e 49 88
e 49 94
e 49 129
e 49 142
e 50 60
e 50 114
e 50 121
e 50 144
e 51 52
e 51 64
e 51 71
e 51 73
e 51 75
e 51 93
e 51 105
e 52 57
e 52 64
e 52 87
e 52 94
e 52 110
e 52 114
e 53 58
e 53 69
e 53 89
e 53 97
e 53 105
e 53 107
e 53 108
e 53 134
e 53 146
e 53 150
e 54 94
e 54 122
e 54 124
e 54 132
e 55 67
e 55 99
e 55 110
e 55 135
e 55 136
e 55 137
e 56 73
e 56 82
e 56 89
e 56 104
e 56 112
e 57 70
e 57 104
e 57 117
e 57 136
e 57 137
e 57 151
e 58 94
e 58 113
e 58 145
e 58 154
e 59 60
e 59 97
e 59 100
e 59 133
e 59 150
e 59 158
e 60 69
e 60 91
e 60 99
e 60 151
e 60 160
e 61 77
e 61 79
e 61 109
e 61 114
e 61 120
e 61 127
e 61 128
e 61 130
e 61 141
e 61 142
e 62 65
e 62 89
e 62 101
e 62 134
e 62 139
e 62 158
e 63 69
e 63 107
e 63 116
e 63 146
e 64 81
e 64 82
e 64 99
e 64 106
e 64 110
e 64 157
e 65 79
e 65 97
e 65 144
e 65 149
e 66 70
e 66 86
e 66 111
e 66 139
e 66 147
e 67 68
e 67 86
e 67 102
e 67 113
e 67 130
e 67 134
e 68 69
e 68 79
e 68 87
e 68 97
e 68 129
e 68 130
e 69 81
e 69 100
e 69 121
e 70 78
e 70 99
e 70 102
e 70 107
e 70 118
e 70 126
e 70 146
e 70 157
e 71 82
e 71 92
e 71 98
e 71 99
e 71 133
e 71 144
e 72 81
e 72 94
e 72 117
e 72 126
e 72 134
e 72 151
e 72 160
e 73 96
e 73 97
e 73 103
e 73 106
e 73 112
e 73 127
e 74 104
e 74 114
e 74 122
e 74 125
e 74 128
e 74 131
e 74 154
e 74 157
e 75 93
e 75 104
e 75 106
e 75 119
e 75 130
e 75 144
e 75 151
e 75 154
e 76 79
e 76 84
e 76 97
e 76 103
e 76 107
e 76 137
e 76 138
e 76 154
e 77 82
e 77 90
e 77 115
e 77 132
e 77 144
e 77 148
e 77 159
e 78 89
e 78 131
e 78 134
e 79 85
e 79 86
e 79 87
e 79 88
e 79 99
e 79 103
e 79 132
e 79 133
e 79 154
e 80 84
e 80 103
e 80 112
e 80 119
e 80 160
e 81 87
e 81 114
e 81 125
e 81 133
e 81 135
e 81 160
e 82 88
e 82 95
e 82 121
e 82 132
e 82 144
e 82 154
e 83 95
e 83 106
e 83 121
e 83 122
e 83 127
e 83 150
e 84 106
e 84 112
e 84 115
e 84 130
e 84 148
e 85 94
e 85 145
e 86 90
e 86 116
e 86 122
e 86 125
e 86 151
e 87 116
e 87 137
e 87 159
e 88 115
e 88 116
e 88 119
e 88 126
e 88 131
e 88 135
e 88 145
e 88 150
e 89 98
e 89 103
e 89 112
e 90 131
e 90 159
e 90 160
e 91 100
e 91 119
e 91 143
e 91 149
e 91 152
e 91 154
e 92 98
e 92 100
e 92 118
e 92 149
e 92 154
e 93 103
e 93 125
e 93 152
e 94 100
e 94 106
e 94 110
e 94 111
e 94 133
e 94 151
e 95 102
e 95 105
e 95 127
e 95 147
e 96 100
e 96 125
e 96 132
e 96 140
e 96 145
e 97 98
e 97 99
e 97 118
e 97 134
e 97 140
e 97 159
e 98 102
e 98 131
e 98 142
e 98 148
e 99 101
e 99 111
e 99 115
e 99 128
e 99 134
e 99 157
e 100 108
e 100 118
e 100 131
e 101 117
e 101 119
e 101 145
e 101 156
e 101 158
e 102 109
e 102 117
e 102 118
e 102 134
e 102 145
e 102 150
e 102 160
e 103 125
e 103 133
e 103 152
e 103 156
e 104 124
e 104 131
e 104 132
e 104 140
e 105 123
e 105 142
e 105 146
e 106 131
e 107 132
e 107 142
e 108 129
e 108 148
e 108 149
e 109 136
e 110 113
e 110 115
e 110 131
e 110 133
e 110 135
e 111 129
e 111 137
e 111 145
e 111 153
e 111 160
e 112 113
e 112 132
e 112 154
e 113 137
e 113 140
e 113 151
e 115 133
e 115 140
e 115 157
e 116 131
e 117 138
e 117 144
e 117 155
e 118 127
e 118 149
e 119 139
e 119 153
e 120 140
e 120 152
e 121 141
e 121 150
e 121 152
e 121 159
e 122 153
e 124 131
e 124 150
e 125 127
e 126 149
e 126 151
e 126 153
e 127 131
e 127 139
e 127 145
e 127 148
e 128 131
e 128 141
e 128 142
e 129 133
e 129 134
e 129 141
e 129 146
e 129 149
e 129 152
e 131 147
e 131 154
e 131 157
e 131 158
e 132 145
e 133 158
e 134 152
e 134 160
e 135 137
e 135 151
e 136 141
e 136 143
e 138 146
e 138 158
e 139 141
e 140 154
e 142 143
e 142 157
e 143 152
e 145 157
e 151 156
e 151 157
e 154 157
e 155 160
e 156 160
